
(set-info :smt-lib-version 2.6)
(set-logic QF_SLIA)
(set-info :source |
Generated by: Denghang Hu,
Generated on: 20230329,
Application: Evaluate string solvers
Description: The instance consists of:
(1) a regular membership predicate from the real world
(2) a regular membership predicate to sanitize danger letters in javascript such as <,>,&,",'
(3) a lower bound for string length
Target solver: Ostrich, Z3str3, CVC5
|)
(set-info :license "https://creativecommons.org/licenses/by/4.0/")
(set-info :category "industrial")
(set-info :status unknown)
        ;test regex df$Date <- sub(".*?\\b([A-Za-z]{3}-\\d{1,2}-\\d{4})\\b.*", "\\1", df$V1)
(declare-const X String)
(assert (str.in_re X (re.++ (re.++ (str.to_re "d") (str.to_re "f")) (re.++ (str.to_re "") (re.++ (str.to_re "D") (re.++ (str.to_re "a") (re.++ (str.to_re "t") (re.++ (str.to_re "e") (re.++ (str.to_re " ") (re.++ (str.to_re "<") (re.++ (str.to_re "-") (re.++ (str.to_re " ") (re.++ (str.to_re "s") (re.++ (str.to_re "u") (re.++ (str.to_re "b") (re.++ (re.++ (re.++ (re.++ (str.to_re "\u{22}") (re.++ (re.* (re.diff re.allchar (str.to_re "\n"))) (re.++ (str.to_re "\\") (re.++ (str.to_re "b") (re.++ (re.++ ((_ re.loop 3 3) (re.union (re.range "A" "Z") (re.range "a" "z"))) (re.++ (str.to_re "-") (re.++ (str.to_re "\\") (re.++ ((_ re.loop 1 2) (str.to_re "d")) (re.++ (str.to_re "-") (re.++ (str.to_re "\\") ((_ re.loop 4 4) (str.to_re "d")))))))) (re.++ (str.to_re "\\") (re.++ (str.to_re "b") (re.++ (re.* (re.diff re.allchar (str.to_re "\n"))) (str.to_re "\u{22}"))))))))) (re.++ (str.to_re ",") (re.++ (str.to_re " ") (re.++ (str.to_re "\u{22}") (re.++ (str.to_re "\\") (re.++ (str.to_re "1") (str.to_re "\u{22}"))))))) (re.++ (str.to_re ",") (re.++ (str.to_re " ") (re.++ (str.to_re "d") (str.to_re "f"))))) (re.++ (str.to_re "") (re.++ (str.to_re "V") (str.to_re "1")))))))))))))))))))
; sanitize danger characters:  < > ' " &
(assert (not (str.in_re X (re.++ re.all (re.union (str.to_re "\u{3c}") (str.to_re "\u{3e}") (str.to_re "\u{27}") (str.to_re "\u{22}") (str.to_re "\u{26}")) re.all))))
(assert (< 20 (str.len X)))
(check-sat)
(get-model)(exit)